# Msex 
 0.0000	0.0000	0.0000	0.0000	0.0001	0.0001	0.0003	0.0006	0.0013	0.0028	0.0062	0.0137	0.0296	0.0630	0.1290	0.2460	0.4182	0.6130	0.7773	0.8849	0.9443	0.9739	0.9880	0.9945	0.9975	0.9989	0.9995	0.9998	0.9999	1.0000	1.0000	1.0000	1.0000	1.0000	1.0000	1.0000	1.0000	1.0000	1.0000	1.0000	1.0000	1.0000	1.0000

# Wt_m 
 1.017	1.332	1.706	2.141	2.643	3.215	3.861	4.586	5.394	6.289	7.275	8.356	9.536	10.819	12.209	13.710	15.324	17.058	18.913	20.895	23.006	25.251	27.633	30.156	32.824	35.639	38.607	41.731	45.013	48.459	52.070	55.852	59.807	63.940	68.253	72.750	77.434	82.310	87.380	92.649	98.119	103.794	109.677

# Wt_h 
 1.614	2.078	2.617	3.236	3.938	4.729	5.611	6.590	7.668	8.850	10.140	11.540	13.055	14.688	16.443	18.323	20.331	22.470	24.745	27.158	29.713	32.411	35.258	38.255	41.407	44.715	48.183	51.813	55.610	59.575	63.712	68.022	72.511	77.179	82.030	87.066	92.291	97.707	103.316	109.122	115.127	121.334	127.744

# cv_Rt_No_Rm 
 0.6 0.6 0.2 

# dt_des_cpue_cru 
 0.67 0.5 0.5 

# Param 
52.8 0.151 19 0.1 0.3
45.6 0.174 19 0.1 0.3
0.1 0.1 0.1 0.1 0.1

# h 
 1 

# q_crucv 
 0.5 0.2 

# L50m 
 4.5 2

# L50h 
 4.5 2 

# Lcrum 
 4 2

# Lcruh 
 3.5 2 

# nbloq_flo 
 1 1985 

# nbloq_cru 
 1 1985

# nbloq_qcpue 
 1 1985 

# nbloq_qcru 
 2 1985 2004 

# FasS_flocru 
 3 3

# FasS_flocru 
 3 3

# Fas_par 
 -4 -4 -4 

# Fas_F 
 4 

# dev_R 
 1 

# dev_No 
 1 

# Fas_pRm 
2 

# Fas_Fpbr 
 5 

# npbr 
4 

# Tasa_bdpr 
0.3 0.4 0.45 0.48

# yr_proy 
 2 

# pR 
 1 

# opt_sim 
 1 
